certificates/rado_a11_c113_N25.cnf
c Rad2 upper bound instance: x1 + 11*x2 - x3 = 113, interval [1,25]
p cnf 25 112
1 9 11 0
-1 -9 -11 0
1 12 20 0
-1 -12 -20 0
2 10 11 0
-2 -10 -11 0
2 12 21 0
-2 -12 -21 0
3 11 0
-3 -11 0
3 12 22 0
-3 -12 -22 0
1 4 10 0
-1 -4 -10 0
4 11 12 0
-4 -11 -12 0
4 12 23 0
-4 -12 -23 0
2 5 10 0
-2 -5 -10 0
5 11 13 0
-5 -11 -13 0
5 12 24 0
-5 -12 -24 0
3 6 10 0
-3 -6 -10 0
6 11 14 0
-6 -11 -14 0
6 12 25 0
-6 -12 -25 0
4 7 10 0
-4 -7 -10 0
7 11 15 0
-7 -11 -15 0
5 8 10 0
-5 -8 -10 0
8 11 16 0
-8 -11 -16 0
6 9 10 0
-6 -9 -10 0
9 11 17 0
-9 -11 -17 0
7 10 0
-7 -10 0
10 11 18 0
-10 -11 -18 0
8 10 11 0
-8 -10 -11 0
11 19 0
-11 -19 0
9 10 12 0
-9 -10 -12 0
11 12 20 0
-11 -12 -20 0
10 13 0
-10 -13 0
11 13 21 0
-11 -13 -21 0
10 11 14 0
-10 -11 -14 0
11 14 22 0
-11 -14 -22 0
1 9 15 0
-1 -9 -15 0
10 12 15 0
-10 -12 -15 0
11 15 23 0
-11 -15 -23 0
2 9 16 0
-2 -9 -16 0
10 13 16 0
-10 -13 -16 0
11 16 24 0
-11 -16 -24 0
3 9 17 0
-3 -9 -17 0
10 14 17 0
-10 -14 -17 0
11 17 25 0
-11 -17 -25 0
4 9 18 0
-4 -9 -18 0
10 15 18 0
-10 -15 -18 0
5 9 19 0
-5 -9 -19 0
10 16 19 0
-10 -16 -19 0
6 9 20 0
-6 -9 -20 0
10 17 20 0
-10 -17 -20 0
7 9 21 0
-7 -9 -21 0
10 18 21 0
-10 -18 -21 0
8 9 22 0
-8 -9 -22 0
10 19 22 0
-10 -19 -22 0
9 23 0
-9 -23 0
10 20 23 0
-10 -20 -23 0
9 10 24 0
-9 -10 -24 0
10 21 24 0
-10 -21 -24 0
9 11 25 0
-9 -11 -25 0
10 22 25 0
-10 -22 -25 0
