certificates/rado_a11_c113_N25.drat
10 9 -25 0
9 -24 -25 0
-24 -25 0
d 9 -24 -25 0
-9 -25 0
-25 0
-23 0
9 0
-10 0
7 0
13 0
22 0
20 0
-21 0
-8 0
-6 0
24 0
18 0
5 0
11 0
3 0
12 0
-16 0
0
